HmaxDs = 0.000000
HmaxUB_percent = 1.087516
HmaxUB_real = 3949.695348
FTnetDs = 2.000000
FTnetUB_percent = 1.819006
FTnetUB_real = 9624.524457
TIFgap = 0.400000
LimCIPF = 74.75492388
SCIP version 1.1.0 [precision: 8 byte] [memory: block] [mode: optimized] [LP solver: Clp 1.8.2]
Copyright (c) 2002-2008 Konrad-Zuse-Zentrum fuer Informationstechnik Berlin (ZIB)

reading user parameter file </home/fabio/docs/hierarquia/models/scip.set>

read problem <data.N30.I1.s1.cluster3.T7.GL2.W4.TIFgap0.4.mps.gz>
============

original problem has 2042 variables (1029 bin, 0 int, 0 impl, 1013 cont) and 448 constraints

solve problem
=============

presolving:
(round 1) 3 del vars, 3 del conss, 4 chg bounds, 0 chg sides, 144 chg coeffs, 0 upgd conss, 0 impls, 168 clqs
(round 2) 5 del vars, 3 del conss, 4 chg bounds, 1 chg sides, 144 chg coeffs, 0 upgd conss, 0 impls, 168 clqs
(round 3) 5 del vars, 3 del conss, 4 chg bounds, 3 chg sides, 144 chg coeffs, 0 upgd conss, 0 impls, 168 clqs
(round 4) 5 del vars, 4 del conss, 4 chg bounds, 3 chg sides, 144 chg coeffs, 169 upgd conss, 0 impls, 168 clqs
   (0.3s) probing: 269/1029 (26.1%) - 0 fixings, 0 aggregations, 9765 implications, 0 bound changes
   (0.3s) probing aborted: 100/100 successive totally useless probings
presolving (5 rounds):
 5 deleted vars, 4 deleted constraints, 4 tightened bounds, 0 added holes, 3 changed sides, 144 changed coefficients
 19530 implications, 168 cliques
presolved problem has 2037 variables (1029 bin, 0 int, 0 impl, 1008 cont) and 444 constraints
      1 constraints of type <knapsack>
    168 constraints of type <setppc>
    275 constraints of type <linear>
Presolving Time: 0.31

 time | node  | left  |LP iter| mem |mdpt |frac |vars |cons |ccons|cols |rows |cuts |confs|strbr|  dualbound   | primalbound  |  gap   
  0.5s|     1 |     0 |   670 |5091k|   0 | 202 |2037 | 444 | 444 |2037 | 444 |   0 |   0 |   0 | 2.254539e+01 |      --      |    Inf 
  2.2s|     1 |     0 |  6593 |5628k|   0 | 195 |2037 | 444 | 444 |2037 | 504 |  60 |   0 |   0 | 4.417810e+01 |      --      |    Inf 
  2.9s|     1 |     0 |  7024 |5810k|   0 | 162 |2037 | 444 | 444 |2037 | 537 |  93 |   0 |   0 | 5.496076e+01 |      --      |    Inf 
  3.9s|     1 |     0 |  7270 |5918k|   0 | 186 |2037 | 444 | 444 |2037 | 552 | 108 |   0 |   0 | 5.689471e+01 |      --      |    Inf 
  4.7s|     1 |     0 |  7484 |5978k|   0 | 176 |2037 | 444 | 444 |2037 | 573 | 129 |   0 |   0 | 5.848148e+01 |      --      |    Inf 
  5.7s|     1 |     0 |  7808 |6023k|   0 | 217 |2037 | 444 | 444 |2037 | 588 | 144 |   0 |   0 | 6.108261e+01 |      --      |    Inf 
  6.8s|     1 |     0 |  8075 |6065k|   0 | 202 |2037 | 444 | 444 |2037 | 601 | 157 |   0 |   0 | 6.238493e+01 |      --      |    Inf 
  7.9s|     1 |     0 |  8286 |6095k|   0 | 210 |2037 | 444 | 444 |2037 | 606 | 162 |   0 |   0 | 6.336376e+01 |      --      |    Inf 
  9.3s|     1 |     0 |  8918 |6117k|   0 | 200 |2037 | 444 | 444 |2037 | 614 | 170 |   0 |   0 | 7.349694e+01 |      --      |    Inf 
 10.7s|     1 |     0 |  9473 |6137k|   0 | 198 |2037 | 444 | 444 |2037 | 622 | 178 |   0 |   0 | 1.113879e+02 |      --      |    Inf 
 12.4s|     1 |     0 | 10382 |6166k|   0 | 194 |2037 | 444 | 444 |2037 | 632 | 188 |   0 |   0 | 2.773094e+02 |      --      |    Inf 
 12.5s|     1 |     0 | 10439 |6167k|   0 | 192 |2037 | 444 | 444 |2037 | 633 | 189 |   0 |   0 | 2.773513e+02 |      --      |    Inf 
 19.8s|     1 |     2 | 10458 |6181k|   0 | 192 |2037 | 444 | 444 |2037 | 633 | 189 |   0 |  23 | 2.773513e+02 |      --      |    Inf 
  102s|   100 |    60 | 79062 |6541k|  17 | 117 |2037 | 505 | 337 |2037 | 553 | 189 |  61 |1091 | 2.798801e+02 |      --      |    Inf 
  159s|   200 |    88 |162539 |6688k|  29 | 134 |2037 | 551 | 373 |2037 | 553 | 189 | 107 |1426 | 2.798801e+02 |      --      |    Inf 
 time | node  | left  |LP iter| mem |mdpt |frac |vars |cons |ccons|cols |rows |cuts |confs|strbr|  dualbound   | primalbound  |  gap   
  201s|   300 |   112 |232299 |6852k|  29 |   - |2037 | 587 | 324 |2037 | 553 | 189 | 143 |1655 | 2.814225e+02 |      --      |    Inf 
  237s|   400 |   136 |296689 |7016k|  29 | 145 |2037 | 649 | 357 |2037 | 553 | 189 | 205 |1922 | 2.818584e+02 |      --      |    Inf 
  290s|   500 |   152 |393337 |7205k|  29 |   - |2037 | 700 | 368 |2037 | 553 | 189 | 258 |2121 | 2.818584e+02 |      --      |    Inf 
  363s|   600 |   158 |519331 |7298k|  29 |   - |2037 | 731 | 483 |2037 | 553 | 189 | 292 |2471 | 2.823497e+02 |      --      |    Inf 
  391s|   700 |   190 |568041 |7431k|  29 |  77 |2037 | 772 | 345 |2037 | 553 | 189 | 336 |2640 | 2.823497e+02 |      --      |    Inf 
  447s|   800 |   198 |650360 |7561k|  29 | 162 |2037 | 838 | 665 |2037 | 553 | 189 | 408 |2822 | 2.870908e+02 |      --      |    Inf 
  493s|   900 |   206 |739116 |7648k|  29 |   - |2037 | 855 | 507 |2037 | 553 | 189 | 436 |3109 | 2.886198e+02 |      --      |    Inf 
  537s|  1000 |   218 |819866 |7778k|  29 |   - |2037 | 923 | 660 |   0 |   0 | 189 | 514 |3415 | 2.888900e+02 |      --      |    Inf 
  571s|  1100 |   221 |886130 |7870k|  29 |   - |2037 | 992 | 344 |2037 | 553 | 189 | 594 |3601 | 3.001206e+02 |      --      |    Inf 
  624s|  1200 |   225 |979620 |7939k|  29 | 158 |2037 |1049 | 502 |2037 | 553 | 189 | 659 |3700 | 3.360229e+02 |      --      |    Inf 
  665s|  1300 |   224 |  1056k|8041k|  32 |   - |2037 |1110 | 363 |   0 |   0 | 189 | 734 |3823 | 3.480432e+02 |      --      |    Inf 
  707s|  1400 |   223 |  1126k|8115k|  32 | 122 |2037 |1152 | 391 |2037 | 553 | 189 | 788 |4033 | 3.725373e+02 |      --      |    Inf 
  754s|  1500 |   210 |  1194k|8210k|  32 |   - |2037 |1199 | 375 |2037 | 553 | 189 | 855 |4215 | 3.885228e+02 |      --      |    Inf 
  813s|  1600 |   221 |  1287k|8317k|  32 |   - |2037 |1219 | 426 |   0 |   0 | 189 | 889 |4490 | 7.188242e+02 |      --      |    Inf 
  850s|  1700 |   224 |  1351k|8342k|  33 | 167 |2037 |1243 | 496 |2037 | 553 | 189 | 930 |4633 | 7.241770e+02 |      --      |    Inf 
 time | node  | left  |LP iter| mem |mdpt |frac |vars |cons |ccons|cols |rows |cuts |confs|strbr|  dualbound   | primalbound  |  gap   
  883s|  1800 |   223 |  1420k|8359k|  33 |  96 |2037 |1267 | 365 |2037 | 553 | 189 | 968 |4688 | 7.241770e+02 |      --      |    Inf 
  939s|  1900 |   204 |  1508k|8276k|  33 | 112 |2037 |1304 | 445 |2037 | 553 | 189 |1027 |4779 | 1.117711e+03 |      --      |    Inf 
  995s|  2000 |   187 |  1592k|8120k|  33 | 106 |2037 |1328 | 477 |2037 | 553 | 189 |1065 |4980 | 1.388279e+03 |      --      |    Inf 
 1033s|  2100 |   156 |  1653k|8025k|  33 | 133 |2037 |1356 | 468 |2037 | 553 | 189 |1124 |5168 | 1.793789e+03 |      --      |    Inf 

SCIP Status        : problem is solved [infeasible]
Solving Time (sec) : 1097.71
Solving Nodes      : 2191
Primal Bound       : +1.00000000000000e+20 (0 solutions)
Dual Bound         : +1.00000000000000e+20
Gap                : 0.00 %

primal solution:
================

no solution available

Statistics
==========

SCIP Status        : problem is solved [infeasible]
Solving Time       :    1097.71
Original Problem   :
  Problem name     : labtel
  Variables        : 2042 (1029 binary, 0 integer, 0 implicit integer, 1013 continuous)
  Constraints      : 448 initial, 448 maximal
Presolved Problem  :
  Problem name     : t_labtel
  Variables        : 2037 (1029 binary, 0 integer, 0 implicit integer, 1008 continuous)
  Constraints      : 444 initial, 1367 maximal
Presolvers         :       Time  FixedVars   AggrVars   ChgTypes  ChgBounds   AddHoles    DelCons   ChgSides   ChgCoefs
  trivial          :       0.00          0          0          0          0          0          0          0          0
  dualfix          :       0.00          0          0          0          0          0          0          0          0
  boundshift       :       0.00          0          0          0          0          0          0          0          0
  inttobinary      :       0.00          0          0          0          0          0          0          0          0
  implics          :       0.00          0          0          0          0          0          0          0          0
  probing          :       0.28          0          0          0          0          0          0          0          0
  knapsack         :       0.00          0          0          0          0          0          0          0          0
  setppc           :       0.00          0          0          0          0          0          0          0          0
  linear           :       0.02          0          5          0          4          0          4          3        144
  logicor          :       0.00          0          0          0          0          0          0          0          0
  bounddisjunction :       0.00          0          0          0          0          0          0          0          0
  root node        :          -          0          -          -          0          -          -          -          -
Constraints        :     Number  #Separate #Propagate    #EnfoLP    #EnfoPS    Cutoffs    DomReds       Cuts      Conss   Children
  integral         :          0          0          0       1202          0          0          8          0          0       2390
  knapsack         :          1         12       9838          0          0          0          0          0          0          0
  setppc           :        168         12       9838          0          0         45     266937          0          0          0
  linear           :        275         12       9793          0          0        301     103394          1          0          0
  logicor          :          0+         0       3713          0          0        141       1543          0          0          0
  bounddisjunction :          0+         0        256          0          0          0          0          0          0          0
  countsols        :          0          0          0          0          0          0          0          0          0          0
Constraint Timings :  TotalTime   Separate  Propagate     EnfoLP     EnfoPS
  integral         :     216.17       0.00       0.00     216.17       0.00
  knapsack         :       0.01       0.00       0.01       0.00       0.00
  setppc           :       1.56       0.00       1.56       0.00       0.00
  linear           :       4.93       0.09       4.84       0.00       0.00
  logicor          :       0.37       0.00       0.37       0.00       0.00
  bounddisjunction :       0.00       0.00       0.00       0.00       0.00
  countsols        :       0.00       0.00       0.00       0.00       0.00
Propagators        :       Time      Calls    Cutoffs    DomReds
  rootredcost      :       0.02          0          0          0
  pseudoobj        :       1.13       9246          0          0
Conflict Analysis  :       Time      Calls    Success  Conflicts   Literals    Reconvs ReconvLits   LP Iters
  propagation      :       0.08        487        479       1556       35.7          6       43.5          -
  infeasible LP    :       1.39        602         44        299       68.7          0        0.0          0
  bound exceed. LP :       0.00          0          0          0        0.0          0        0.0          0
  strong branching :       0.00          0          0          0        0.0          0        0.0          0
  pseudo solution  :       0.00          0          0          0        0.0          0        0.0          -
  applied globally :          -          -          -       1169       30.0          -          -          -
  applied locally  :          -          -          -          1      121.0          -          -          -
Separators         :       Time      Calls    Cutoffs    DomReds       Cuts      Conss
  cut pool         :       0.00         11          -          -         18          -    (maximal pool size: 244)
  redcost          :       0.31       1213          0          0          0          0
  impliedbounds    :       0.01         12          0          0          0          0
  intobj           :       0.00          0          0          0          0          0
  gomory           :       0.23         12          0          0          5          0
  strongcg         :       0.16         12          0          0          1          0
  cmir             :       7.35         10          0          0        237          0
  flowcover        :       0.73         10          0          0          8          0
  clique           :       0.02         12          0          0          0          0
  zerohalf         :       0.00          0          0          0          0          0
  mcf              :       0.00          0          0          0          0          0
Pricers            :       Time      Calls       Vars
  problem variables:       0.00          0          0
Branching Rules    :       Time      Calls    Cutoffs    DomReds       Cuts      Conss   Children
  relpscost        :     216.16       1202          0          8          0          0       2390
  pscost           :       0.00          0          0          0          0          0          0
  inference        :       0.00          0          0          0          0          0          0
  mostinf          :       0.00          0          0          0          0          0          0
  leastinf         :       0.00          0          0          0          0          0          0
  fullstrong       :       0.00          0          0          0          0          0          0
  allfullstrong    :       0.00          0          0          0          0          0          0
  random           :       0.00          0          0          0          0          0          0
Primal Heuristics  :       Time      Calls      Found
  LP solutions     :       0.00          -          0
  pseudo solutions :       0.00          -          0
  oneopt           :       0.00          0          0
  crossover        :       0.00          0          0
  guideddiving     :       0.00          0          0
  linesearchdiving :       0.20          1          0
  objpscostdiving  :       0.17          1          0
  feaspump         :       1.23          1          0
  rootsoldiving    :       8.79          1          0
  coefdiving       :       6.91          2          0
  pscostdiving     :       4.68          2          0
  fracdiving       :       2.54          2          0
  veclendiving     :       3.65          2          0
  simplerounding   :       0.01          0          0
  rounding         :       0.16        458          0
  shifting         :       0.53        129          0
  intshifting      :       0.63          5          0
  fixandinfer      :       0.00          0          0
  intdiving        :       0.00          0          0
  actconsdiving    :       0.00          0          0
  octane           :       0.00          0          0
  rens             :       5.64          1          0
  rins             :       0.00          0          0
  localbranching   :       0.00          0          0
  mutation         :       0.00          0          0
  dins             :       0.00          0          0
LP                 :       Time      Calls Iterations  Iter/call   Iter/sec
  primal LP        :       1.49         19       2255     118.68    1513.42
  dual LP          :     819.70       2398    1707368     712.00    2082.92
  barrier LP       :       0.00          0          0       0.00          -
  diving/probing LP:      27.14        632      48857      77.31    1800.18
  strong branching :     215.79       5328     596431     111.94    2763.94
    (at root node) :          -         23       3530     153.48          -
  conflict analysis:       0.00          0          0       0.00          -
B&B Tree           :
  number of runs   :          1
  nodes            :       2191
  nodes (total)    :       2191
  nodes left       :          0
  max depth        :         33
  max depth (total):         33
  backtracks       :        389 (17.8%)
  delayed cutoffs  :        200
  repropagations   :       2133 (64093 domain reductions, 57 cutoffs)
  avg switch length:       6.22
  switching time   :       3.12
Solution           :
  Solutions found  :          0 (0 improvements)
  Primal Bound     : infeasible
  Dual Bound       :          -
  Gap              :       0.00 %
  Root Dual Bound  : +2.77351262986060e+02
